(set-info :status unknown)
(declare-fun a3 () Real)
(declare-fun a2 () Real)
(declare-fun a1 () Real)
(assert
 (forall ((x1 Real) (x2 Real) )(let (($x73 (<= (+ (+ (* a1 (^ x1 2.0)) (* a2 (^ x2 2.0))) a3) 0.0)))
 (let (($x74 (<= x2 5.0)))
 (let (($x75 (>= x2 (- 5.0))))
 (let (($x76 (<= x1 5.0)))
 (let (($x77 (>= x1 (- 5.0))))
 (let (($x78 (and $x77 $x76 $x75 $x74)))
 (let ((?x84 (- (+ (^ (- x1 (/ 1.0 2.0)) 2.0) (^ (- x2 (/ 1.0 2.0)) 2.0)) (/ 1.0 16.0))))
 (=> (and (<= ?x84 0.0) $x78) $x73)))))))))
 )
(assert
 (forall ((x1 Real) (x2 Real) )(let ((?x99 (+ (* a1 (^ (- (* (/ 1111111111111111.0 1250000000000000.0) x1) (* (/ 1111111111111111.0 20000000000000000.0) x2)) 2.0)) (* a2 (^ (+ (* (/ 1.0 10.0) x1) (* (/ 9.0 10.0) x2)) 2.0)))))
 (let (($x74 (<= x2 5.0)))
 (let (($x75 (>= x2 (- 5.0))))
 (let (($x76 (<= x1 5.0)))
 (let (($x77 (>= x1 (- 5.0))))
 (let (($x78 (and $x77 $x76 $x75 $x74)))
 (let (($x73 (<= (+ (+ (* a1 (^ x1 2.0)) (* a2 (^ x2 2.0))) a3) 0.0)))
 (=> (and $x73 true true $x78) (<= (+ ?x99 a3) 0.0))))))))))
 )
(assert
 (forall ((x1 Real) (x2 Real) )(let (($x74 (<= x2 5.0)))
 (let (($x75 (>= x2 (- 5.0))))
 (let (($x76 (<= x1 5.0)))
 (let (($x77 (>= x1 (- 5.0))))
 (let (($x78 (and $x77 $x76 $x75 $x74)))
 (let (($x73 (<= (+ (+ (* a1 (^ x1 2.0)) (* a2 (^ x2 2.0))) a3) 0.0)))
 (=> (and $x73 (not true) $x78) (<= (- (^ x2 2.0) 4.0) 0.0)))))))))
 )
(assert
 (let (($x22 (<= a2 1.0)))
 (let (($x21 (>= a2 0.0)))
 (let (($x20 (<= a1 1.0)))
 (let (($x18 (>= a1 0.0)))
 (and $x18 $x20 $x21 $x22))))))
(check-sat)

